<number of tasks>
50

<cycle time>
1000

<order strength>
0.904


<task times>
1 80
2 29
3 67
4 62
5 128
6 185
7 61
8 69
9 253
10 128
11 54
12 54
13 272
14 62
15 254
16 73
17 143
18 176
19 145
20 70
21 132
22 39
23 88
24 145
25 271
26 99
27 196
28 203
29 100
30 227
31 176
32 205
33 86
34 59
35 229
36 231
37 125
38 231
39 193
40 231
41 150
42 36
43 22
44 55
45 119
46 114
47 239
48 185
49 157
50 189

<precedence relations>
1,4
1,6
1,7
2,4
2,5
2,6
2,7
3,4
3,5
3,6
3,7
4,8
4,9
4,10
4,12
5,8
5,9
5,10
5,11
5,12
6,8
6,9
6,10
6,11
7,8
7,9
7,10
7,11
7,12
8,13
9,13
9,14
10,18
10,19
11,13
11,14
12,13
12,14
13,15
13,16
13,17
14,15
14,16
14,17
15,18
15,19
16,18
16,19
17,18
17,19
18,20
18,21
18,22
19,20
19,21
19,22
20,23
21,23
22,23
23,24
24,25
24,26
24,27
24,28
25,29
25,30
26,29
26,30
27,29
27,30
28,29
28,30
29,31
29,32
29,33
30,31
30,32
30,33
31,35
32,34
32,35
32,39
33,35
33,36
33,37
34,46
35,38
36,38
36,39
38,40
38,41
39,42
39,46
39,48
40,43
40,46
41,43
41,44
41,45
42,43
42,44
42,47
43,49
45,47
45,48
45,49
46,47
47,50
49,50

<end>
